sat
(:eliminated-applications 2
 :eliminated-vars         2
 :max-memory              17.95
 :memory                  17.95
 :nlsat-propagations      2
 :nlsat-stages            3
 :num-allocs              18236
 :rlimit-count            467
 :time                    0.00)
